# Solution for model p01_budget_0p220
# Objective value = 2.2000000000006237e-01
Risk 2.2000000000006237e-01
0 0
1 0
3 0.001
4 30.001
5 3.0002000000000002e+01
6 40.002
7 3.7610031926898223e+01
9 7.8206114119473568e+01
c(0,1)_Rl 0.001
c(0,1)_Ru 0
c(0,3)_Rl 0
c(0,3)_Ru 0
c(3,4)_Rl 0
c(3,4)_Ru 0
c(4,5)_Rl 0
c(4,5)_Ru 0
c(3,5)_Rl 0
c(3,5)_Ru 0
c(1,2)_l 0
c(1,2)_u 3.7609031926898226e+01
c(2,7)_Fl 0
c(2,7)_Fu 1.2368184220457823e-01
c(1,7)_Rl 0
c(1,7)_Ru 0
c(5,6)_Rl 0
c(5,6)_Ru 0
c(3,6)_Rl 0
c(3,6)_Ru 0
c(7,8)_l 0
c(7,8)_u 4.0595082192575340e+01
c(1,8)_Fl 0
c(1,8)_Fu 4.8159078897742069e-02
c(0,9)_Rl 0
c(0,9)_Ru 4.2205514119473570e+01
c(8,9)_Fl 0
c(8,9)_Fu 4.8159078897742069e-02
c(6,9)_Rl 0
c(6,9)_Ru 0
Cost 4.2206514119473567e+01
